
******************************************************************************
This program contains Ipopt, a library for large-scale nonlinear optimization.
 Ipopt is released as open source code under the Eclipse Public License (EPL).
         For more information visit http://projects.coin-or.org/Ipopt
******************************************************************************

This is Ipopt version 3.12.6, running with linear solver ma57.

Number of nonzeros in equality constraint Jacobian...:    27956
Number of nonzeros in inequality constraint Jacobian.:        0
Number of nonzeros in Lagrangian Hessian.............:    13978

Total number of variables............................:     5994
                     variables with only lower bounds:        0
                variables with lower and upper bounds:        0
                     variables with only upper bounds:        0
Total number of equality constraints.................:     3996
Total number of inequality constraints...............:        0
        inequality constraints with only lower bounds:        0
   inequality constraints with lower and upper bounds:        0
        inequality constraints with only upper bounds:        0

iter    objective    inf_pr   inf_du lg(mu)  ||d||  lg(rg) alpha_du alpha_pr  ls
   0  1.4050000e+02 0.00e+00 3.62e-01  -1.0 0.00e+00    -  0.00e+00 0.00e+00   0
   1  1.6885760e+01 1.07e-01 1.95e-01  -1.7 2.39e-01    -  1.00e+00 1.00e+00f  1
   2  3.7269559e+01 7.69e-03 1.01e-01  -2.5 1.72e-01    -  1.00e+00 1.00e+00h  1
   3  3.5199180e+01 2.38e-04 6.45e-03  -2.5 4.82e-02    -  1.00e+00 1.00e+00h  1
   4  3.5199353e+01 1.27e-05 3.84e-04  -3.8 1.25e-02    -  1.00e+00 1.00e+00h  1
   5  3.5199345e+01 1.70e-08 1.49e-06  -5.7 7.93e-04    -  1.00e+00 1.00e+00h  1
   6  3.5199345e+01 2.16e-13 2.29e-11  -8.6 3.11e-06    -  1.00e+00 1.00e+00h  1

Number of Iterations....: 6

                                   (scaled)                 (unscaled)
Objective...............:   3.5199344919141943e+01    3.5199344919141943e+01
Dual infeasibility......:   2.2875680516509789e-11    2.2875680516509789e-11
Constraint violation....:   2.1579960041151480e-13    2.1579960041151480e-13
Complementarity.........:   0.0000000000000000e+00    0.0000000000000000e+00
Overall NLP error.......:   2.2875680516509789e-11    2.2875680516509789e-11


Number of objective function evaluations             = 7
Number of objective gradient evaluations             = 7
Number of equality constraint evaluations            = 7
Number of inequality constraint evaluations          = 0
Number of equality constraint Jacobian evaluations   = 7
Number of inequality constraint Jacobian evaluations = 0
Number of Lagrangian Hessian evaluations             = 6
Total CPU secs in IPOPT (w/o function evaluations)   =      0.053
Total CPU secs in NLP function evaluations           =      0.033

EXIT: Optimal Solution Found.

************************ CUTEst statistics ************************


 Package used            :  IPOPT
 Problem                 :  DTOC1NC   
 # variables             =            5998
 # constraints           =            3996
 # objective functions   =        0.1500000E+02
 # objective gradients   =        0.8000000E+01
 # objective Hessians    =        0.7000000E+01
 # Hessian-vector prdct  =        0.0000000E+00
 # constraints functions =        0.1600000E+02
 # constraints gradients =        0.9000000E+01
 # constraints Hessians  =        0.7000000E+01
 Exit code               =               0
 Final f                 =   0.3519934E+02
 Set up time             =            0.22 seconds
 Solve time              =            0.15 seconds


******************************************************************

System Time =       0.0700000003 s.
